NAME : single
TYPE : ATSP
DIMENSION : 8
EDGE_WEIGHT_TYPE : EXPLICIT
EDGE_WEIGHT_FORMAT : FULL_MATRIX
EDGE_WEIGHT_SECTION
0 50000 50000 50000 50000 50000 50000 50000 
0 0 63 182 131 123 163 90 
0 63 0 217 181 73 113 50 
0 182 217 0 51 143 185 177 
0 131 181 51 0 195 155 221 
0 123 73 143 195 0 112 33 
0 163 113 185 155 112 0 120 
0 90 50 177 221 33 120 0 
EOF